Problem:    pianali
Rows:       36
Columns:    138 (130 integer, 130 binary)
Non-zeros:  290
Status:     INTEGER OPTIMAL
Objective:  z = 2 (MINimum)

   No.   Row name        Activity     Lower bound   Upper bound
------ ------------    ------------- ------------- -------------
     1 AllungamentoInf[1]
                                 1.5                         1.5 
     2 AllungamentoInf[2]
                                 1.5                         1.5 
     3 AllungamentoPianale[1,Motrice,Inferiore]
                                   1                           1 
     4 AllungamentoPianale[1,Motrice,Superiore]
                                   0                          -0 
     5 AllungamentoPianale[1,Rimorchio,Inferiore]
                                 0.5                           1 
     6 AllungamentoPianale[1,Rimorchio,Superiore]
                                   0                          -0 
     7 AllungamentoPianale[2,Motrice,Inferiore]
                                 0.7                           1 
     8 AllungamentoPianale[2,Motrice,Superiore]
                                   0                          -0 
     9 AllungamentoPianale[2,Rimorchio,Inferiore]
                                 0.8                           1 
    10 AllungamentoPianale[2,Rimorchio,Superiore]
                                   0                          -0 
    11 Capacity[1,Motrice,Inferiore]
                                   0                          -0 
    12 Capacity[1,Motrice,Superiore]
                                   0                          -0 
    13 Capacity[1,Rimorchio,Inferiore]
                                   0                          -0 
    14 Capacity[1,Rimorchio,Superiore]
                                   0                          -0 
    15 Capacity[2,Motrice,Inferiore]
                                   0                          -0 
    16 Capacity[2,Motrice,Superiore]
                                   0                          -0 
    17 Capacity[2,Rimorchio,Inferiore]
                                   0                          -0 
    18 Capacity[2,Rimorchio,Superiore]
                                   0                          -0 
    19 Assegnamento[1]
                                   1             1             = 
    20 Assegnamento[2]
                                   1             1             = 
    21 Assegnamento[3]
                                   1             1             = 
    22 Assegnamento[4]
                                   1             1             = 
    23 Assegnamento[5]
                                   1             1             = 
    24 Assegnamento[6]
                                   1             1             = 
    25 Assegnamento[7]
                                   1             1             = 
    26 Assegnamento[8]
                                   1             1             = 
    27 Assegnamento[9]
                                   1             1             = 
    28 Assegnamento[10]
                                   1             1             = 
    29 Assegnamento[11]
                                   1             1             = 
    30 Assegnamento[12]
                                   1             1             = 
    31 Assegnamento[13]
                                   1             1             = 
    32 Assegnamento[14]
                                   1             1             = 
    33 Assegnamento[15]
                                   1             1             = 
    34 Assegnamento[16]
                                   1             1             = 
    35 Superiore                   0            -0             = 
    36 z                           2                             

   No. Column name       Activity     Lower bound   Upper bound
------ ------------    ------------- ------------- -------------
     1 x[1,Motrice,Inferiore,1]
                    *              0             0             1 
     2 x[1,Motrice,Inferiore,2]
                    *              0             0             1 
     3 x[1,Motrice,Inferiore,3]
                    *              0             0             1 
     4 x[1,Motrice,Inferiore,4]
                    *              0             0             1 
     5 x[1,Motrice,Inferiore,5]
                    *              1             0             1 
     6 x[1,Motrice,Inferiore,6]
                    *              0             0             1 
     7 x[1,Motrice,Inferiore,7]
                    *              0             0             1 
     8 x[1,Motrice,Inferiore,8]
                    *              0             0             1 
     9 x[1,Motrice,Inferiore,9]
                    *              0             0             1 
    10 x[1,Motrice,Inferiore,10]
                    *              0             0             1 
    11 x[1,Motrice,Inferiore,11]
                    *              0             0             1 
    12 x[1,Motrice,Inferiore,12]
                    *              0             0             1 
    13 x[1,Motrice,Inferiore,13]
                    *              0             0             1 
    14 x[1,Motrice,Inferiore,14]
                    *              0             0             1 
    15 x[1,Motrice,Inferiore,15]
                    *              1             0             1 
    16 x[1,Motrice,Inferiore,16]
                    *              0             0             1 
    17 x[1,Motrice,Superiore,1]
                    *              0             0             1 
    18 x[1,Motrice,Superiore,2]
                    *              0             0             1 
    19 x[1,Motrice,Superiore,3]
                    *              0             0             1 
    20 x[1,Motrice,Superiore,4]
                    *              0             0             1 
    21 x[1,Motrice,Superiore,5]
                    *              0             0             1 
    22 x[1,Motrice,Superiore,6]
                    *              0             0             1 
    23 x[1,Motrice,Superiore,7]
                    *              0             0             1 
    24 x[1,Motrice,Superiore,8]
                    *              0             0             1 
    25 x[1,Motrice,Superiore,9]
                    *              0             0             1 
    26 x[1,Motrice,Superiore,10]
                    *              0             0             1 
    27 x[1,Motrice,Superiore,11]
                    *              0             0             1 
    28 x[1,Motrice,Superiore,12]
                    *              1             0             1 
    29 x[1,Motrice,Superiore,13]
                    *              0             0             1 
    30 x[1,Motrice,Superiore,14]
                    *              1             0             1 
    31 x[1,Motrice,Superiore,15]
                    *              0             0             1 
    32 x[1,Motrice,Superiore,16]
                    *              0             0             1 
    33 x[1,Rimorchio,Inferiore,1]
                    *              0             0             1 
    34 x[1,Rimorchio,Inferiore,2]
                    *              0             0             1 
    35 x[1,Rimorchio,Inferiore,3]
                    *              0             0             1 
    36 x[1,Rimorchio,Inferiore,4]
                    *              0             0             1 
    37 x[1,Rimorchio,Inferiore,5]
                    *              0             0             1 
    38 x[1,Rimorchio,Inferiore,6]
                    *              0             0             1 
    39 x[1,Rimorchio,Inferiore,7]
                    *              0             0             1 
    40 x[1,Rimorchio,Inferiore,8]
                    *              0             0             1 
    41 x[1,Rimorchio,Inferiore,9]
                    *              0             0             1 
    42 x[1,Rimorchio,Inferiore,10]
                    *              1             0             1 
    43 x[1,Rimorchio,Inferiore,11]
                    *              1             0             1 
    44 x[1,Rimorchio,Inferiore,12]
                    *              0             0             1 
    45 x[1,Rimorchio,Inferiore,13]
                    *              0             0             1 
    46 x[1,Rimorchio,Inferiore,14]
                    *              0             0             1 
    47 x[1,Rimorchio,Inferiore,15]
                    *              0             0             1 
    48 x[1,Rimorchio,Inferiore,16]
                    *              0             0             1 
    49 x[1,Rimorchio,Superiore,1]
                    *              0             0             1 
    50 x[1,Rimorchio,Superiore,2]
                    *              1             0             1 
    51 x[1,Rimorchio,Superiore,3]
                    *              0             0             1 
    52 x[1,Rimorchio,Superiore,4]
                    *              1             0             1 
    53 x[1,Rimorchio,Superiore,5]
                    *              0             0             1 
    54 x[1,Rimorchio,Superiore,6]
                    *              0             0             1 
    55 x[1,Rimorchio,Superiore,7]
                    *              0             0             1 
    56 x[1,Rimorchio,Superiore,8]
                    *              0             0             1 
    57 x[1,Rimorchio,Superiore,9]
                    *              0             0             1 
    58 x[1,Rimorchio,Superiore,10]
                    *              0             0             1 
    59 x[1,Rimorchio,Superiore,11]
                    *              0             0             1 
    60 x[1,Rimorchio,Superiore,12]
                    *              0             0             1 
    61 x[1,Rimorchio,Superiore,13]
                    *              0             0             1 
    62 x[1,Rimorchio,Superiore,14]
                    *              0             0             1 
    63 x[1,Rimorchio,Superiore,15]
                    *              0             0             1 
    64 x[1,Rimorchio,Superiore,16]
                    *              0             0             1 
    65 x[2,Motrice,Inferiore,1]
                    *              0             0             1 
    66 x[2,Motrice,Inferiore,2]
                    *              0             0             1 
    67 x[2,Motrice,Inferiore,3]
                    *              0             0             1 
    68 x[2,Motrice,Inferiore,4]
                    *              0             0             1 
    69 x[2,Motrice,Inferiore,5]
                    *              0             0             1 
    70 x[2,Motrice,Inferiore,6]
                    *              0             0             1 
    71 x[2,Motrice,Inferiore,7]
                    *              1             0             1 
    72 x[2,Motrice,Inferiore,8]
                    *              1             0             1 
    73 x[2,Motrice,Inferiore,9]
                    *              0             0             1 
    74 x[2,Motrice,Inferiore,10]
                    *              0             0             1 
    75 x[2,Motrice,Inferiore,11]
                    *              0             0             1 
    76 x[2,Motrice,Inferiore,12]
                    *              0             0             1 
    77 x[2,Motrice,Inferiore,13]
                    *              0             0             1 
    78 x[2,Motrice,Inferiore,14]
                    *              0             0             1 
    79 x[2,Motrice,Inferiore,15]
                    *              0             0             1 
    80 x[2,Motrice,Inferiore,16]
                    *              0             0             1 
    81 x[2,Motrice,Superiore,1]
                    *              1             0             1 
    82 x[2,Motrice,Superiore,2]
                    *              0             0             1 
    83 x[2,Motrice,Superiore,3]
                    *              1             0             1 
    84 x[2,Motrice,Superiore,4]
                    *              0             0             1 
    85 x[2,Motrice,Superiore,5]
                    *              0             0             1 
    86 x[2,Motrice,Superiore,6]
                    *              0             0             1 
    87 x[2,Motrice,Superiore,7]
                    *              0             0             1 
    88 x[2,Motrice,Superiore,8]
                    *              0             0             1 
    89 x[2,Motrice,Superiore,9]
                    *              0             0             1 
    90 x[2,Motrice,Superiore,10]
                    *              0             0             1 
    91 x[2,Motrice,Superiore,11]
                    *              0             0             1 
    92 x[2,Motrice,Superiore,12]
                    *              0             0             1 
    93 x[2,Motrice,Superiore,13]
                    *              0             0             1 
    94 x[2,Motrice,Superiore,14]
                    *              0             0             1 
    95 x[2,Motrice,Superiore,15]
                    *              0             0             1 
    96 x[2,Motrice,Superiore,16]
                    *              0             0             1 
    97 x[2,Rimorchio,Inferiore,1]
                    *              0             0             1 
    98 x[2,Rimorchio,Inferiore,2]
                    *              0             0             1 
    99 x[2,Rimorchio,Inferiore,3]
                    *              0             0             1 
   100 x[2,Rimorchio,Inferiore,4]
                    *              0             0             1 
   101 x[2,Rimorchio,Inferiore,5]
                    *              0             0             1 
   102 x[2,Rimorchio,Inferiore,6]
                    *              1             0             1 
   103 x[2,Rimorchio,Inferiore,7]
                    *              0             0             1 
   104 x[2,Rimorchio,Inferiore,8]
                    *              0             0             1 
   105 x[2,Rimorchio,Inferiore,9]
                    *              1             0             1 
   106 x[2,Rimorchio,Inferiore,10]
                    *              0             0             1 
   107 x[2,Rimorchio,Inferiore,11]
                    *              0             0             1 
   108 x[2,Rimorchio,Inferiore,12]
                    *              0             0             1 
   109 x[2,Rimorchio,Inferiore,13]
                    *              0             0             1 
   110 x[2,Rimorchio,Inferiore,14]
                    *              0             0             1 
   111 x[2,Rimorchio,Inferiore,15]
                    *              0             0             1 
   112 x[2,Rimorchio,Inferiore,16]
                    *              0             0             1 
   113 x[2,Rimorchio,Superiore,1]
                    *              0             0             1 
   114 x[2,Rimorchio,Superiore,2]
                    *              0             0             1 
   115 x[2,Rimorchio,Superiore,3]
                    *              0             0             1 
   116 x[2,Rimorchio,Superiore,4]
                    *              0             0             1 
   117 x[2,Rimorchio,Superiore,5]
                    *              0             0             1 
   118 x[2,Rimorchio,Superiore,6]
                    *              0             0             1 
   119 x[2,Rimorchio,Superiore,7]
                    *              0             0             1 
   120 x[2,Rimorchio,Superiore,8]
                    *              0             0             1 
   121 x[2,Rimorchio,Superiore,9]
                    *              0             0             1 
   122 x[2,Rimorchio,Superiore,10]
                    *              0             0             1 
   123 x[2,Rimorchio,Superiore,11]
                    *              0             0             1 
   124 x[2,Rimorchio,Superiore,12]
                    *              0             0             1 
   125 x[2,Rimorchio,Superiore,13]
                    *              1             0             1 
   126 x[2,Rimorchio,Superiore,14]
                    *              0             0             1 
   127 x[2,Rimorchio,Superiore,15]
                    *              0             0             1 
   128 x[2,Rimorchio,Superiore,16]
                    *              1             0             1 
   129 all[1,Motrice,Inferiore]
                                   1             0               
   130 all[1,Motrice,Superiore]
                                   0             0               
   131 all[1,Rimorchio,Inferiore]
                                 0.5             0               
   132 all[1,Rimorchio,Superiore]
                                   0             0               
   133 all[2,Motrice,Inferiore]
                                 0.7             0               
   134 all[2,Motrice,Superiore]
                                   0             0               
   135 all[2,Rimorchio,Inferiore]
                                 0.8             0               
   136 all[2,Rimorchio,Superiore]
                                   0             0               
   137 y[1]         *              1             0             1 
   138 y[2]         *              1             0             1 

Integer feasibility conditions:

KKT.PE: max.abs.err = 8.88e-16 on row 14
        max.rel.err = 5.77e-17 on row 14
        High quality

KKT.PB: max.abs.err = 0.00e+00 on row 0
        max.rel.err = 0.00e+00 on row 0
        High quality

End of output
